#######################################
### Exact MIP solver for the HHCRSP ###
#######################################
-- Instance file: new-instances/HHCRSP_400_80_96_0.4_C_C.txt
-- Max threads: 4
-- Time limit: 999999 seconds
-- Use initial solution: No
Trivial flow violations prevented generating 2785010 variables.
Version identifier: 20.1.0.0 | 2020-11-10 | 9bedb6d68
CPXPARAM_Threads                                 4
CPXPARAM_Emphasis_Memory                         1
CPXPARAM_TimeLimit                               999999
Tried aggregator 1 time.
Presolve has eliminated 84558 rows and 19399 columns...
LP Presolve eliminated 84558 rows and 19399 columns.
Reduced LP has 3087022 rows, 2926138 columns, and 89328753 nonzeros.
Presolve time = 93.91 sec. (18956.51 ticks)
Compression time = 21.42 sec. (5.84 ticks)
Compression reduced 1285.39 MB A matrix to 386.10 MB
Symmetry aggregator did 5274093 additional substitutions.
Initializing dual steep norms . . .
Elapsed time = 116.88 sec. (19690.18 ticks, 1 iterations)

Iteration log . . .
Iteration:     1   Dual objective     =             0.666667
Iteration:  1819   Dual objective     =           437.666667

Dual crossover.
  Dual:  Fixing 3267 variables.
     3266 DMoves:  Infeasibility  3.71158659e-12  Objective  4.41000000e+02
        0 DMoves:  Infeasibility  1.31859338e-12  Objective  4.41000000e+02
  Dual:  Pushed 42, exchanged 3225.
  Primal:  Fixing 2414 variables.
     2413 PMoves:  Infeasibility  2.80331314e-15  Objective  4.41000000e+02
        0 PMoves:  Infeasibility  6.46011022e-15  Objective  4.41000000e+02
  Primal:  Pushed 2218, exchanged 196.

Solution status from MIP model:
-- Processing time: 159.475 sec.
-- Memory used: 1991.06 MB
-- Best bound: inf
-- Obj value: 441
-- Gap: inf%
-- Total distance: 1323
-- Total tardiness: 0
-- Largest tardiness: 0
